% seed = 4941344

mint = 44;
% maxt = 101;

nActs = 22;
dur = [0,10,4,1,4,9,3,1,10,3,8,4,5,5,5,10,6,3,2,1,7,0];

nSkills = 4;
sreq = [| 0,0,0,0,
	| 1,3,2,3,
	| 1,2,2,3,
	| 2,1,2,1,
	| 1,2,1,3,
	| 3,1,3,1,
	| 1,2,2,3,
	| 3,2,1,1,
	| 2,3,2,1,
	| 3,1,3,3,
	| 1,2,3,3,
	| 3,1,3,3,
	| 2,2,3,2,
	| 3,1,1,2,
	| 2,1,1,1,
	| 1,1,1,2,
	| 2,2,3,2,
	| 3,1,2,2,
	| 3,1,3,3,
	| 3,2,2,2,
	| 2,2,2,2,
	| 0,0,0,0, |];

nResources = 25;
mastery = [| true,false,false,true,
	| false,false,false,true,
	| false,false,false,true,
	| false,false,false,true,
	| false,true,true,false,
	| false,false,false,true,
	| false,true,false,true,
	| false,true,true,true,
	| false,true,true,true,
	| true,false,true,true,
	| true,true,true,false,
	| false,false,false,true,
	| true,true,true,false,
	| false,true,true,true,
	| false,false,true,false,
	| true,true,false,true,
	| true,false,true,true,
	| true,false,false,true,
	| true,false,true,true,
	| true,false,false,true,
	| false,false,true,true,
	| false,false,true,false,
	| false,true,false,false,
	| true,false,true,true,
	| false,true,false,true, |];

nPrecs = 43;
pred = [1,1,1,2,2,2,3,3,4,4,5,5,5,6,6,6,7,7,7,8,8,8,9,9,9,10,10,10,11,11,11,12,12,13,14,15,16,16,17,18,19,20,21];
succ = [2,3,4,11,6,8,5,6,5,16,11,21,7,9,14,7,17,18,15,18,21,16,10,21,15,17,12,16,12,14,15,18,13,19,17,20,19,20,19,20,22,22,22];

nUnrels = 74;
unpred = [2,2,2,3,3,4,4,4,4,5,5,5,5,5,6,6,7,7,7,7,7,7,7,7,7,8,8,8,8,8,8,8,8,9,9,10,10,10,10,11,11,12,12,12,12,12,13,13,13,13,13,13,13,14,14,14,14,14,15,15,15,15,15,16,16,16,17,17,17,18,18,19,19,20];
unsucc = [3,4,5,4,8,6,8,9,10,6,8,9,10,16,8,11,8,9,10,11,12,13,14,16,21,9,10,11,12,13,14,15,17,11,14,11,14,15,21,16,21,14,15,16,17,21,14,15,16,17,18,20,21,15,16,18,20,21,16,17,18,19,21,17,18,21,18,20,21,19,21,20,21,21];

USEFUL_RES = [{},
	{1,2,3,4,5,6,7,8,9,10,11,12,13,14,15,16,17,18,19,20,21,22,23,24,25},
	{1,2,3,4,5,6,7,8,9,10,11,12,13,14,15,16,17,18,19,20,21,22,23,24,25},
	{1,2,3,4,5,6,7,8,9,10,11,12,13,14,15,16,17,18,19,20,21,22,23,24,25},
	{1,2,3,4,5,6,7,8,9,10,11,12,13,14,15,16,17,18,19,20,21,22,23,24,25},
	{1,2,3,4,5,6,7,8,9,10,11,12,13,14,15,16,17,18,19,20,21,22,23,24,25},
	{1,2,3,4,5,6,7,8,9,10,11,12,13,14,15,16,17,18,19,20,21,22,23,24,25},
	{1,2,3,4,5,6,7,8,9,10,11,12,13,14,15,16,17,18,19,20,21,22,23,24,25},
	{1,2,3,4,5,6,7,8,9,10,11,12,13,14,15,16,17,18,19,20,21,22,23,24,25},
	{1,2,3,4,5,6,7,8,9,10,11,12,13,14,15,16,17,18,19,20,21,22,23,24,25},
	{1,2,3,4,5,6,7,8,9,10,11,12,13,14,15,16,17,18,19,20,21,22,23,24,25},
	{1,2,3,4,5,6,7,8,9,10,11,12,13,14,15,16,17,18,19,20,21,22,23,24,25},
	{1,2,3,4,5,6,7,8,9,10,11,12,13,14,15,16,17,18,19,20,21,22,23,24,25},
	{1,2,3,4,5,6,7,8,9,10,11,12,13,14,15,16,17,18,19,20,21,22,23,24,25},
	{1,2,3,4,5,6,7,8,9,10,11,12,13,14,15,16,17,18,19,20,21,22,23,24,25},
	{1,2,3,4,5,6,7,8,9,10,11,12,13,14,15,16,17,18,19,20,21,22,23,24,25},
	{1,2,3,4,5,6,7,8,9,10,11,12,13,14,15,16,17,18,19,20,21,22,23,24,25},
	{1,2,3,4,5,6,7,8,9,10,11,12,13,14,15,16,17,18,19,20,21,22,23,24,25},
	{1,2,3,4,5,6,7,8,9,10,11,12,13,14,15,16,17,18,19,20,21,22,23,24,25},
	{1,2,3,4,5,6,7,8,9,10,11,12,13,14,15,16,17,18,19,20,21,22,23,24,25},
	{1,2,3,4,5,6,7,8,9,10,11,12,13,14,15,16,17,18,19,20,21,22,23,24,25},
	{}];

POTENTIAL_ACT = [{2,3,4,5,6,7,8,9,10,11,12,13,14,15,16,17,18,19,20,21},
	{2,3,4,5,6,7,8,9,10,11,12,13,14,15,16,17,18,19,20,21},
	{2,3,4,5,6,7,8,9,10,11,12,13,14,15,16,17,18,19,20,21},
	{2,3,4,5,6,7,8,9,10,11,12,13,14,15,16,17,18,19,20,21},
	{2,3,4,5,6,7,8,9,10,11,12,13,14,15,16,17,18,19,20,21},
	{2,3,4,5,6,7,8,9,10,11,12,13,14,15,16,17,18,19,20,21},
	{2,3,4,5,6,7,8,9,10,11,12,13,14,15,16,17,18,19,20,21},
	{2,3,4,5,6,7,8,9,10,11,12,13,14,15,16,17,18,19,20,21},
	{2,3,4,5,6,7,8,9,10,11,12,13,14,15,16,17,18,19,20,21},
	{2,3,4,5,6,7,8,9,10,11,12,13,14,15,16,17,18,19,20,21},
	{2,3,4,5,6,7,8,9,10,11,12,13,14,15,16,17,18,19,20,21},
	{2,3,4,5,6,7,8,9,10,11,12,13,14,15,16,17,18,19,20,21},
	{2,3,4,5,6,7,8,9,10,11,12,13,14,15,16,17,18,19,20,21},
	{2,3,4,5,6,7,8,9,10,11,12,13,14,15,16,17,18,19,20,21},
	{2,3,4,5,6,7,8,9,10,11,12,13,14,15,16,17,18,19,20,21},
	{2,3,4,5,6,7,8,9,10,11,12,13,14,15,16,17,18,19,20,21},
	{2,3,4,5,6,7,8,9,10,11,12,13,14,15,16,17,18,19,20,21},
	{2,3,4,5,6,7,8,9,10,11,12,13,14,15,16,17,18,19,20,21},
	{2,3,4,5,6,7,8,9,10,11,12,13,14,15,16,17,18,19,20,21},
	{2,3,4,5,6,7,8,9,10,11,12,13,14,15,16,17,18,19,20,21},
	{2,3,4,5,6,7,8,9,10,11,12,13,14,15,16,17,18,19,20,21},
	{2,3,4,5,6,7,8,9,10,11,12,13,14,15,16,17,18,19,20,21},
	{2,3,4,5,6,7,8,9,10,11,12,13,14,15,16,17,18,19,20,21},
	{2,3,4,5,6,7,8,9,10,11,12,13,14,15,16,17,18,19,20,21},
	{2,3,4,5,6,7,8,9,10,11,12,13,14,15,16,17,18,19,20,21}];
